Route #1: 1 29 22 60 37 48 49 30 46 5 1 
Route #2: 1 8 54 15 54 20 14 53 35 1 
Route #3: 1 18 4 45 33 51 19 26 10 13 1 
Route #4: 1 28 14 55 14 9 36 54 1 
Route #5: 1 31 30 38 6 16 58 14 47 1 
Route #6: 1 52 4 17 4 50 4 41 1 
Route #7: 1 27 54 12 39 59 11 40 10 1 
Route #8: 1 7 2 34 2 23 29 3 1 
Route #9: 1 2 42 44 2 43 2 1 
Cost 793.0
